
******************************************************************************
This program contains Ipopt, a library for large-scale nonlinear optimization.
 Ipopt is released as open source code under the Eclipse Public License (EPL).
         For more information visit http://projects.coin-or.org/Ipopt
******************************************************************************

This is Ipopt version 3.12.12, running with linear solver mumps.
NOTE: Other linear solvers might be more efficient (see Ipopt documentation).

Number of nonzeros in equality constraint Jacobian...:    51220
Number of nonzeros in inequality constraint Jacobian.:      401
Number of nonzeros in Lagrangian Hessian.............:        0

Total number of variables............................:      701
                     variables with only lower bounds:        0
                variables with lower and upper bounds:      701
                     variables with only upper bounds:        0
Total number of equality constraints.................:      510
Total number of inequality constraints...............:      201
        inequality constraints with only lower bounds:        0
   inequality constraints with lower and upper bounds:      201
        inequality constraints with only upper bounds:        0

iter    objective    inf_pr   inf_du lg(mu)  ||d||  lg(rg) alpha_du alpha_pr  ls
   0  9.9000001e-01 5.94e+01 1.00e+00   0.0 0.00e+00    -  0.00e+00 0.00e+00   0
   1  9.9990001e-01 5.63e+01 1.28e+01   0.1 1.93e+00    -  3.42e-02 5.19e-02f  1
   2  9.9198313e-01 3.79e+01 4.13e+02  -1.4 1.29e+00    -  5.67e-03 3.30e-01f  1
   3  5.1892646e-01 4.31e+01 3.27e+02  -0.7 1.26e+00    -  4.30e-01 5.94e-01f  1
   4  5.2057737e-01 3.21e+01 2.96e+02   0.0 1.90e+00    -  3.47e-01 2.58e-01f  1
   5  5.2324154e-01 1.13e+01 4.14e+02  -0.5 5.78e-01    -  4.23e-01 6.44e-01h  1
   6  5.1015220e-01 4.22e+00 1.15e+02  -0.6 4.27e-01    -  9.99e-01 6.71e-01h  1
   7  4.9764279e-01 4.59e-01 5.52e+01  -1.2 1.24e-01    -  1.00e+00 9.90e-01h  1
   8  4.9701708e-01 1.06e-02 1.57e+01  -1.5 3.71e-02    -  1.00e+00 9.90e-01h  1
   9  5.0375900e-01 4.10e-02 1.19e+02  -2.0 8.46e-02    -  9.69e-01 9.94e-01h  1
iter    objective    inf_pr   inf_du lg(mu)  ||d||  lg(rg) alpha_du alpha_pr  ls
  10  5.3916442e-01 1.29e+00 1.60e+00  -2.1 3.02e-01    -  1.00e+00 1.00e+00h  1
  11  5.3159399e-01 1.13e-01 2.12e+00  -2.1 1.03e-01    -  1.00e+00 1.00e+00h  1
  12  5.4551655e-01 5.38e-02 1.77e+00  -2.1 5.07e-02    -  1.00e+00 1.00e+00h  1
  13  6.8769289e-01 4.33e+00 2.01e+00  -2.1 1.93e-01    -  8.17e-01 1.00e+00h  1
  14  8.0719788e-01 1.21e+00 1.87e-01  -2.1 1.52e-01    -  1.00e+00 1.00e+00h  1
  15  8.0627402e-01 5.21e-03 1.19e-01  -2.1 6.86e-02    -  1.00e+00 1.00e+00h  1
  16  5.1366157e-01 7.98e+00 4.70e+05  -3.1 2.93e-01    -  4.10e-01 1.00e+00h  1
  17  3.6213995e-01 6.07e+00 8.64e+04  -3.1 2.23e-01    -  8.16e-01 1.00e+00h  1
  18  2.7059945e-01 4.63e+00 8.07e-02  -3.1 1.87e-01    -  1.00e+00 1.00e+00h  1
  19  2.0048693e-01 4.89e+00 3.95e+00  -3.1 3.32e-01    -  9.92e-01 1.00e+00h  1
iter    objective    inf_pr   inf_du lg(mu)  ||d||  lg(rg) alpha_du alpha_pr  ls
  20  1.4720127e-01 4.71e+00 5.91e-02  -3.4 2.76e-01    -  1.00e+00 1.00e+00h  1
  21  1.0491327e-01 5.25e+00 4.57e-02  -3.6 3.41e-01    -  1.00e+00 1.00e+00h  1
  22  8.4159023e-02 2.56e+00 1.09e-01  -3.8 2.95e-01    -  1.00e+00 1.00e+00h  1
  23  8.8344989e-02 2.20e-02 1.67e+01  -4.1 2.01e-02    -  9.98e-01 1.00e+00h  1
  24  8.8031629e-02 8.03e-05 2.69e-03  -5.6 2.03e-03    -  1.00e+00 1.00e+00h  1
  25  8.1699015e-02 3.88e-02 2.85e+00  -5.6 2.63e-01    -  9.99e-01 1.45e-01h  1
  26  7.9381265e-02 4.51e-02 2.09e+03  -4.6 2.38e-01    -  1.00e+00 1.18e-01h  1
  27  8.0047115e-02 3.81e-02 1.94e-02  -4.1 1.31e-01    -  1.00e+00 1.00e+00h  1
  28  7.1652852e-02 3.93e-01 1.20e+01  -4.6 1.37e-01    -  9.98e-01 1.00e+00h  1
  29  6.9144063e-02 7.36e-02 6.04e-02  -4.7 1.78e-01    -  1.00e+00 1.00e+00h  1
iter    objective    inf_pr   inf_du lg(mu)  ||d||  lg(rg) alpha_du alpha_pr  ls
  30  7.0291172e-02 5.59e-02 1.40e+02  -4.3 3.77e-01    -  8.95e-01 9.48e-01h  1
  31  6.6794274e-02 1.97e-01 2.19e-02  -4.7 3.28e-01    -  1.00e+00 1.00e+00h  1
  32  6.7866024e-02 2.55e-02 6.09e-02  -4.5 3.48e-01    -  1.00e+00 1.00e+00h  1
  33  6.4872047e-02 1.24e-01 8.34e-01  -4.8 2.94e-01    -  1.00e+00 1.00e+00h  1
  34  6.3817771e-02 5.45e-02 8.02e-02  -4.8 5.17e-01    -  1.00e+00 1.00e+00h  1
  35  6.3819598e-02 1.32e-04 5.44e-02  -4.8 3.87e-01    -  1.00e+00 1.00e+00h  1
  36  6.2529192e-02 7.54e-02 3.32e+02  -5.3 2.69e-01    -  1.00e+00 6.24e-01h  1
  37  6.2384126e-02 1.85e-02 1.99e+00  -5.0 3.79e-01    -  1.00e+00 9.88e-01h  1
  38  6.3981542e-02 2.40e-01 7.19e-02  -4.7 3.70e-01    -  1.00e+00 1.00e+00h  1
  39  6.3492506e-02 1.52e-01 2.01e+01  -4.8 7.87e-01    -  4.38e-01 3.84e-01h  1
iter    objective    inf_pr   inf_du lg(mu)  ||d||  lg(rg) alpha_du alpha_pr  ls
  40  6.3012580e-02 1.02e-01 3.10e+01  -4.8 8.27e-01    -  4.02e-01 3.19e-01f  1
  41  6.2241371e-02 6.25e-02 1.70e+01  -4.8 9.63e-01    -  1.93e-01 4.65e-01h  1
  42  6.2038039e-02 6.40e-04 4.88e+02  -5.7 7.58e-03    -  6.42e-01 1.00e+00h  1
  43  6.3612342e-02 2.49e-02 5.61e+03  -4.2 2.93e-01    -  9.66e-01 1.33e-01h  1
  44  6.5197843e-02 7.39e-02 6.77e+02  -4.3 2.30e-01    -  5.31e-01 1.00e+00h  1
  45  6.5267113e-02 4.41e-02 3.33e+02  -4.3 4.76e-01    -  5.09e-01 4.36e-01h  1
  46  6.5865615e-02 4.52e-02 1.07e+02  -4.3 3.34e-01    -  6.77e-01 5.84e-01h  1
  47  6.5729980e-02 5.13e-03 2.41e+01  -4.3 4.88e-01    -  7.76e-01 9.46e-01f  1
  48  6.3012678e-02 1.05e-01 2.10e+00  -4.3 5.10e-01    -  9.13e-01 1.00e+00f  1
  49  5.9835027e-02 1.93e-01 5.93e-02  -4.3 3.57e-01    -  1.00e+00 8.60e-01h  1
iter    objective    inf_pr   inf_du lg(mu)  ||d||  lg(rg) alpha_du alpha_pr  ls
  50  5.3842587e-02 6.82e-01 1.25e+03  -6.4 3.03e-01    -  4.35e-01 6.73e-01h  1
  51  5.2686030e-02 4.99e-01 4.44e+02  -5.3 3.95e-01    -  4.91e-01 3.43e-01h  1
  52  5.0733308e-02 4.24e-01 2.76e+02  -5.0 8.74e-01    -  3.60e-01 3.38e-01h  1
  53  4.9043602e-02 3.90e-01 3.35e+02 -10.9 1.14e+00    -  1.74e-01 2.65e-01h  1
  54  4.8334598e-02 3.36e-01 2.59e+02  -7.0 9.20e-01    -  1.99e-01 1.89e-01h  1
  55  4.7390199e-02 2.83e-01 2.73e+02  -5.6 1.68e+00    -  1.44e-01 2.53e-01h  1
  56  4.6916763e-02 2.43e-01 2.50e+02  -5.4 1.41e+00    -  1.14e-01 1.58e-01h  1
  57  4.6370672e-02 2.14e-01 1.64e+02  -6.2 1.78e+00    -  2.12e-01 1.44e-01h  1
  58  4.5632401e-02 1.46e-01 1.27e+02  -5.3 2.01e+00    -  1.94e-01 2.62e-01h  1
  59  4.5400107e-02 7.06e-02 7.34e+01  -5.2 5.00e-01    -  3.51e-01 4.64e-01h  1
iter    objective    inf_pr   inf_du lg(mu)  ||d||  lg(rg) alpha_du alpha_pr  ls
  60  4.5415015e-02 8.56e-04 1.36e+01  -5.2 2.47e-01    -  5.95e-01 1.00e+00h  1
  61  4.5069602e-02 6.98e-03 4.45e-02  -5.5 8.54e-02    -  1.00e+00 1.00e+00h  1
  62  4.5451735e-02 1.26e-02 2.12e-02  -5.2 1.66e-01    -  1.00e+00 1.00e+00h  1
  63  4.5281190e-02 3.17e-03 4.59e-03  -5.3 1.29e-01    -  1.00e+00 1.00e+00h  1
  64  4.4729102e-02 1.19e-02 3.97e-03  -5.8 1.32e-01    -  1.00e+00 1.00e+00h  1
  65  4.4468078e-02 2.87e-02 8.97e-04  -6.1 1.63e-01    -  1.00e+00 1.00e+00h  1
  66  4.4413870e-02 7.73e-03 3.49e-03  -6.3 2.16e-01    -  1.00e+00 1.00e+00h  1
  67  4.4384552e-02 5.63e-03 3.17e-04  -6.5 3.38e-01    -  1.00e+00 1.00e+00h  1
  68  4.4363857e-02 1.42e-03 2.87e-04  -6.6 1.40e-01    -  1.00e+00 1.00e+00h  1
  69  4.4332987e-02 1.08e-03 7.69e-04  -7.0 3.53e-02    -  1.00e+00 1.00e+00h  1
iter    objective    inf_pr   inf_du lg(mu)  ||d||  lg(rg) alpha_du alpha_pr  ls
  70  4.4321217e-02 3.82e-04 5.63e-04  -7.4 4.94e-02    -  1.00e+00 1.00e+00h  1
  71  4.4327967e-02 7.38e-05 1.40e-04  -7.2 1.62e-02    -  1.00e+00 1.00e+00h  1
  72  4.4317475e-02 2.32e-04 1.26e-04  -7.7 3.32e-02    -  1.00e+00 1.00e+00h  1
  73  4.4314653e-02 3.48e-05 7.55e-05  -8.3 1.70e-02    -  1.00e+00 1.00e+00h  1
  74  4.4314313e-02 3.57e-06 7.88e-06  -8.5 1.58e-02    -  1.00e+00 1.00e+00h  1
  75  4.4315717e-02 8.52e-06 6.48e-05  -8.0 1.10e-02    -  1.00e+00 1.00e+00h  1
  76  4.4315304e-02 1.28e-06 5.07e-06  -8.1 4.82e-03    -  1.00e+00 1.00e+00h  1
  77  4.4314116e-02 6.76e-06 2.60e-03  -8.6 8.60e-03    -  1.00e+00 9.96e-01h  1
  78  4.4314533e-02 7.28e-06 2.76e-06  -8.3 2.78e-02    -  1.00e+00 1.00e+00h  1
  79  4.4313836e-02 5.18e-05 3.79e-03  -8.9 1.18e-01    -  1.00e+00 9.89e-01h  1
iter    objective    inf_pr   inf_du lg(mu)  ||d||  lg(rg) alpha_du alpha_pr  ls
  80  4.4313884e-02 3.24e-05 3.01e-02  -8.4 9.67e-01    -  1.41e-01 2.39e-01h  1
  81  4.4313865e-02 3.09e-05 1.05e-01 -10.6 1.11e-01    -  5.04e-01 4.62e-02h  1
  82  4.4313657e-02 3.76e-07 1.94e-07  -9.1 3.18e-03    -  9.39e-01 1.00e+00h  1

Number of Iterations....: 82

                                   (scaled)                 (unscaled)
Objective...............:   4.4313657481449213e-02    4.4313657481449213e-02
Dual infeasibility......:   1.9417820323080912e-07    1.9417820323080912e-07
Constraint violation....:   3.0828976060881529e-08    3.7576058622539116e-07
Complementarity.........:   1.4385964215639809e-09    1.4385964215639809e-09
Overall NLP error.......:   1.9417820323080912e-07    3.7576058622539116e-07


Number of objective function evaluations             = 83
Number of objective gradient evaluations             = 83
Number of equality constraint evaluations            = 83
Number of inequality constraint evaluations          = 83
Number of equality constraint Jacobian evaluations   = 83
Number of inequality constraint Jacobian evaluations = 83
Number of Lagrangian Hessian evaluations             = 0
Total CPU secs in IPOPT (w/o function evaluations)   =     15.599
Total CPU secs in NLP function evaluations           =     27.510

EXIT: Optimal Solution Found.
